7 5 9 -1 7 -1 1 8 6 -1 
8 9 5 9 7 8 9 2 3 -1 
0 9 0 -1 1 2 7 4 8 -1 
8 1 4 1 -1 1 3 5 1 -1 
5 3 1 8 9 0 3 -1 5 -1 
0 5 4 -1 1 0 8 5 5 -1 
2 6 9 5 5 3 2 2 8 -1 
6 9 6 1 2 6 2 3 0 -1 
5 3 1 -1 3 6 -1 2 3 -1 
9 2 -1 -1 4 4 7 0 4 -1 
